; QF_LIA benchmark: system_08
(set-logic QF_LIA)
(declare-fun v0 () Int)
(declare-fun v1 () Int)
(declare-fun v2 () Int)
(declare-fun v3 () Int)
(assert (= (+ (* -3 v0) (* -4 v1) (* -1 v2) (* 1 v3)) -7))
(assert (= (+ (* -1 v0) (* -5 v1) (* -1 v2) (* -1 v3)) 25))
(assert (<= (+ (* 5 v0) (* 2 v1) (* -3 v2) (* 2 v3)) 18))
(assert (<= (+ (* 3 v2) (* 3 v3)) -2))
(assert (>= (+ (* -2 v1) (* -2 v2) (* 4 v3)) -1))
(assert (<= (+ (* 1 v0) (* -5 v1) (* 2 v3)) 40))
(assert (>= (+ (* 1 v0) (* 5 v1) (* 5 v2) (* -3 v3)) 13))
(assert (<= (+ (* -3 v0) (* 3 v1) (* 4 v2)) -38))
(check-sat)
(exit)
